NAME : portcgen-17-2
COMMENT : portcgen N=17, seed=2
TYPE : TSP
DIMENSION : 17
EDGE_WEIGHT_TYPE : EUC_2D
NODE_COORD_SECTION
1 358857 100841
2 612713 163386
3 -35260 -61259
4 -252349 -146193
5 -128006 -166994
6 291189 -350882
7 253028 193863
8 -461499 -108645
9 324997 -79612
10 -87479 270964
11 82327 36684
12 232725 393201
13 -213780 192986
14 -29965 -247705
15 31342 -44182
16 31095 -10163
17 -95423 205341
